solving instance uflp nlass holmberg 1 sinabc2
Couenne 0.5.8 -- an Open-Source solver for Mixed Integer Nonlinear Optimization
Mailing list: couenne@list.coin-or.org
Instructions: http://www.coin-or.org/Couenne
couenne: 
ANALYSIS TEST: Reformulating problem: 1.1 seconds
NLP0012I 
              Num      Status      Obj             It       time                 Location
NLP0014I             1         OPT 6704.033      326 9.481725
NLP0014I             2         OPT 13331.465      470 11.292062
Couenne: new cutoff value 1.3331464647e+04 (27.1121 seconds)
Loaded instance "/tmp/jl_Z1e588/model.nl"
Constraints:         1550
Variables:           1510 (510 integer)
Auxiliaries:         2051 (0 integer)

Coin0506I Presolve 6991 (-560) rows, 2951 (-610) columns and 15391 (-1170) elements
Clp0006I 0  Obj 0 Primal inf 1743.6527 (1050)
Clp0006I 214  Obj 0 Primal inf 1864.8247 (1100)
Clp0006I 428  Obj 0 Primal inf 1685.4292 (1100)
Clp0006I 642  Obj 6.3515095e-15 Primal inf 2087.4602 (1186)
Clp0006I 856  Obj 1.6156822e-14 Primal inf 3812.5756 (1258)
Clp0006I 1070  Obj 1.6774886e-14 Primal inf 2067.1337 (1008)
Clp0006I 1284  Obj 5.5085298e-14 Primal inf 10724.741 (1391)
Clp0006I 1498  Obj 6.5055167e-14 Primal inf 2828.9006 (1121)
Clp0006I 1712  Obj 5.5056762e-13 Primal inf 4124.6491 (1219)
Clp0006I 1926  Obj 1.9431306e-12 Primal inf 13744.758 (1422)
Clp0006I 2140  Obj 3.6698268e-12 Primal inf 4486.7173 (1021)
Clp0006I 2354  Obj 348.48488 Primal inf 189.12434 (401)
Clp0006I 2568  Obj 465.44033 Primal inf 20.48625 (96)
Clp0006I 2761  Obj 531.63539 Primal inf 8.245116 (38)
Clp0006I 2899  Obj 591.64171
Clp0000I Optimal - objective value 591.64171
Clp0032I Optimal objective 591.6417125 - 2899 iterations time 0.412, Presolve 0.04
Clp0000I Optimal - objective value 591.64171
Cbc0012I Integer solution of 13331.465 found by Couenne Rounding NLP after 0 iterations and 0 nodes (0.01 seconds)
NLP Heuristic: time limit reached.
Clp0000I Optimal - objective value 591.64171
Optimality Based BT: 0 improved bounds
Probing: 0 improved bounds
NLP Heuristic: time limit reached.
Cbc0031I 804 added rows had average density of 2
Cbc0013I At root node, 804 cuts changed objective from 591.64171 to 2117.1963 in 20 passes
Cbc0014I Cut generator 0 (Couenne convexifier cuts) - 7710 row cuts average 2.0 elements, 1 column cuts (791 active)
Cbc0010I After 0 nodes, 1 on tree, 13331.465 best solution, best possible 2117.1963 (29.05 seconds)
Optimality Based BT: 0 improved bounds
Optimality Based BT: 1 improved bounds
Couenne: new cutoff value 1.0897845325e+04 (149.771 seconds)
Cbc0012I Integer solution of 10897.845 found by Couenne Rounding NLP after 8318 iterations and 2 nodes (122.08 seconds)
Optimality Based BT: 0 improved bounds
Optimality Based BT: 1 improved bounds
Couenne: new cutoff value 1.0306386597e+04 (284.757 seconds)
Cbc0012I Integer solution of 10306.387 found by Couenne Rounding NLP after 12303 iterations and 6 nodes (257.06 seconds)
Cbc0010I After 100 nodes, 50 on tree, 10306.387 best solution, best possible 2347.3445 (305.25 seconds)
Cbc0010I After 200 nodes, 100 on tree, 10306.387 best solution, best possible 2347.3445 (314.61 seconds)
Cbc0010I After 300 nodes, 150 on tree, 10306.387 best solution, best possible 2347.3445 (328.59 seconds)
Cbc0010I After 400 nodes, 200 on tree, 10306.387 best solution, best possible 2347.3445 (344.07 seconds)
Cbc0010I After 500 nodes, 250 on tree, 10306.387 best solution, best possible 2347.3445 (359.50 seconds)
Cbc0010I After 600 nodes, 300 on tree, 10306.387 best solution, best possible 2347.3445 (374.83 seconds)
Cbc0010I After 700 nodes, 350 on tree, 10306.387 best solution, best possible 2347.3445 (390.08 seconds)
Optimality Based BT: 0 improved bounds
Couenne: new cutoff value 1.0201709301e+04 (570.864 seconds)
Cbc0012I Integer solution of 10201.709 found by Couenne Rounding NLP after 105988 iterations and 720 nodes (543.17 seconds)
Optimality Based BT: 0 improved bounds
Optimality Based BT: 1 improved bounds
Couenne: new cutoff value 1.0146403663e+04 (704.289 seconds)
Cbc0012I Integer solution of 10146.404 found by Couenne Rounding NLP after 108658 iterations and 723 nodes (676.59 seconds)
Couenne: new cutoff value 1.0129652727e+04 (741.207 seconds)
Cbc0012I Integer solution of 10129.653 found by Couenne Rounding NLP after 110211 iterations and 724 nodes (713.51 seconds)
Optimality Based BT: 0 improved bounds
Cbc0010I After 800 nodes, 389 on tree, 10129.653 best solution, best possible 2389.3155 (726.53 seconds)
Cbc0010I After 900 nodes, 439 on tree, 10129.653 best solution, best possible 2389.3155 (734.62 seconds)
Cbc0010I After 1000 nodes, 489 on tree, 10129.653 best solution, best possible 2389.3155 (748.18 seconds)
Cbc0010I After 1100 nodes, 539 on tree, 10129.653 best solution, best possible 2389.3155 (761.95 seconds)
Cbc0010I After 1200 nodes, 589 on tree, 10129.653 best solution, best possible 2389.3155 (776.17 seconds)
Cbc0010I After 1300 nodes, 639 on tree, 10129.653 best solution, best possible 2389.3155 (790.45 seconds)
Cbc0010I After 1400 nodes, 689 on tree, 10129.653 best solution, best possible 2389.3155 (804.81 seconds)
Cbc0010I After 1500 nodes, 739 on tree, 10129.653 best solution, best possible 2389.3155 (818.76 seconds)
Optimality Based BT: 0 improved bounds
Cbc0010I After 1600 nodes, 786 on tree, 10129.653 best solution, best possible 2503.0862 (845.27 seconds)
Cbc0010I After 1700 nodes, 836 on tree, 10129.653 best solution, best possible 2503.0862 (859.09 seconds)
Cbc0010I After 1800 nodes, 886 on tree, 10129.653 best solution, best possible 2503.0862 (868.69 seconds)
Cbc0010I After 1900 nodes, 936 on tree, 10129.653 best solution, best possible 2503.0862 (882.30 seconds)
Cbc0010I After 2000 nodes, 986 on tree, 10129.653 best solution, best possible 2503.0862 (896.19 seconds)
Cbc0010I After 2100 nodes, 1036 on tree, 10129.653 best solution, best possible 2503.0862 (910.35 seconds)
Cbc0010I After 2200 nodes, 1083 on tree, 10129.653 best solution, best possible 2509.7849 (938.99 seconds)
Cbc0010I After 2300 nodes, 1133 on tree, 10129.653 best solution, best possible 2509.7849 (949.56 seconds)
Cbc0010I After 2400 nodes, 1183 on tree, 10129.653 best solution, best possible 2509.7849 (961.14 seconds)
Cbc0010I After 2500 nodes, 1233 on tree, 10129.653 best solution, best possible 2509.7849 (974.71 seconds)
Cbc0010I After 2600 nodes, 1283 on tree, 10129.653 best solution, best possible 2509.7849 (988.17 seconds)
Cbc0010I After 2700 nodes, 1333 on tree, 10129.653 best solution, best possible 2509.7849 (1002.03 seconds)
Cbc0010I After 2800 nodes, 1383 on tree, 10129.653 best solution, best possible 2509.7849 (1015.95 seconds)
Cbc0010I After 2900 nodes, 1431 on tree, 10129.653 best solution, best possible 2544.3783 (1033.82 seconds)
Cbc0010I After 3000 nodes, 1481 on tree, 10129.653 best solution, best possible 2544.3783 (1046.06 seconds)
Cbc0010I After 3100 nodes, 1531 on tree, 10129.653 best solution, best possible 2544.3783 (1057.67 seconds)
Cbc0010I After 3200 nodes, 1581 on tree, 10129.653 best solution, best possible 2544.3783 (1071.35 seconds)
Cbc0010I After 3300 nodes, 1631 on tree, 10129.653 best solution, best possible 2544.3783 (1085.53 seconds)
Cbc0010I After 3400 nodes, 1673 on tree, 10129.653 best solution, best possible 2566.0314 (1105.49 seconds)
Cbc0010I After 3500 nodes, 1723 on tree, 10129.653 best solution, best possible 2566.0314 (1119.28 seconds)
Cbc0010I After 3600 nodes, 1773 on tree, 10129.653 best solution, best possible 2566.0314 (1129.22 seconds)
Cbc0010I After 3700 nodes, 1823 on tree, 10129.653 best solution, best possible 2566.0314 (1142.23 seconds)
Cbc0010I After 3800 nodes, 1873 on tree, 10129.653 best solution, best possible 2566.0314 (1155.67 seconds)
Cbc0010I After 3900 nodes, 1903 on tree, 10129.653 best solution, best possible 2570.552 (1171.19 seconds)
Cbc0010I After 4000 nodes, 1953 on tree, 10129.653 best solution, best possible 2570.552 (1185.49 seconds)
Cbc0010I After 4100 nodes, 2003 on tree, 10129.653 best solution, best possible 2570.552 (1197.16 seconds)
Cbc0010I After 4200 nodes, 2053 on tree, 10129.653 best solution, best possible 2570.552 (1209.56 seconds)
Cbc0010I After 4300 nodes, 2103 on tree, 10129.653 best solution, best possible 2570.552 (1226.67 seconds)
Couenne: new cutoff value 9.2384834278e+03 (1266.53 seconds)
Cbc0012I Integer solution of 9238.4834 found by Couenne Rounding NLP after 703179 iterations and 4326 nodes (1238.83 seconds)
Cbc0010I After 4400 nodes, 1863 on tree, 9238.4834 best solution, best possible 2588.4439 (1263.94 seconds)
Cbc0010I After 4500 nodes, 1913 on tree, 9238.4834 best solution, best possible 2588.4439 (1274.00 seconds)
Cbc0010I After 4600 nodes, 1963 on tree, 9238.4834 best solution, best possible 2588.4439 (1286.48 seconds)
Cbc0010I After 4700 nodes, 2013 on tree, 9238.4834 best solution, best possible 2588.4439 (1300.34 seconds)
Cbc0010I After 4800 nodes, 2063 on tree, 9238.4834 best solution, best possible 2588.4439 (1314.51 seconds)
Cbc0010I After 4900 nodes, 2103 on tree, 9238.4834 best solution, best possible 2593.1042 (1330.03 seconds)
Cbc0010I After 5000 nodes, 2153 on tree, 9238.4834 best solution, best possible 2593.1042 (1343.05 seconds)
Cbc0010I After 5100 nodes, 2203 on tree, 9238.4834 best solution, best possible 2593.1042 (1353.43 seconds)
Cbc0010I After 5200 nodes, 2253 on tree, 9238.4834 best solution, best possible 2593.1042 (1366.99 seconds)
Cbc0010I After 5300 nodes, 2303 on tree, 9238.4834 best solution, best possible 2593.1042 (1380.97 seconds)
Cbc0010I After 5400 nodes, 2347 on tree, 9238.4834 best solution, best possible 2593.1042 (1394.82 seconds)
Cbc0010I After 5500 nodes, 2390 on tree, 9238.4834 best solution, best possible 2596.7726 (1412.01 seconds)
Cbc0010I After 5600 nodes, 2440 on tree, 9238.4834 best solution, best possible 2596.7726 (1421.43 seconds)
Cbc0010I After 5700 nodes, 2490 on tree, 9238.4834 best solution, best possible 2596.7726 (1432.62 seconds)
Cbc0010I After 5800 nodes, 2540 on tree, 9238.4834 best solution, best possible 2596.7726 (1446.51 seconds)
Cbc0010I After 5900 nodes, 2590 on tree, 9238.4834 best solution, best possible 2596.7726 (1460.65 seconds)
Optimality Based BT: 1 improved bounds
Cbc0010I After 6000 nodes, 2632 on tree, 9238.4834 best solution, best possible 2601.616 (1589.71 seconds)
Cbc0010I After 6100 nodes, 2682 on tree, 9238.4834 best solution, best possible 2603.465 (1614.55 seconds)
Cbc0010I After 6200 nodes, 2732 on tree, 9238.4834 best solution, best possible 2603.465 (1624.14 seconds)
Cbc0010I After 6300 nodes, 2782 on tree, 9238.4834 best solution, best possible 2603.465 (1637.84 seconds)
Cbc0010I After 6400 nodes, 2832 on tree, 9238.4834 best solution, best possible 2603.465 (1651.55 seconds)
Cbc0010I After 6500 nodes, 2882 on tree, 9238.4834 best solution, best possible 2603.465 (1665.32 seconds)
Cbc0010I After 6600 nodes, 2924 on tree, 9238.4834 best solution, best possible 2605.3886 (1745.48 seconds)
Cbc0010I After 6700 nodes, 2974 on tree, 9238.4834 best solution, best possible 2605.3886 (1756.75 seconds)
Cbc0010I After 6800 nodes, 3024 on tree, 9238.4834 best solution, best possible 2605.3886 (1764.57 seconds)
Cbc0010I After 6900 nodes, 3074 on tree, 9238.4834 best solution, best possible 2605.3886 (1778.16 seconds)
Cbc0010I After 7000 nodes, 3124 on tree, 9238.4834 best solution, best possible 2605.3886 (1791.86 seconds)
Cbc0010I After 7100 nodes, 3174 on tree, 9238.4834 best solution, best possible 2605.3886 (1806.01 seconds)
Cbc0010I After 7200 nodes, 3221 on tree, 9238.4834 best solution, best possible 2606.0018 (1820.66 seconds)
Cbc0010I After 7300 nodes, 3271 on tree, 9238.4834 best solution, best possible 2606.0018 (1835.09 seconds)
Cbc0010I After 7400 nodes, 3321 on tree, 9238.4834 best solution, best possible 2606.0018 (1846.59 seconds)
Cbc0010I After 7500 nodes, 3371 on tree, 9238.4834 best solution, best possible 2606.0018 (1860.12 seconds)
Cbc0010I After 7600 nodes, 3421 on tree, 9238.4834 best solution, best possible 2606.0018 (1873.84 seconds)
Cbc0010I After 7700 nodes, 3471 on tree, 9238.4834 best solution, best possible 2606.0018 (1887.78 seconds)
Cbc0010I After 7800 nodes, 3508 on tree, 9238.4834 best solution, best possible 2606.9673 (1904.80 seconds)
Cbc0010I After 7900 nodes, 3558 on tree, 9238.4834 best solution, best possible 2606.9673 (1912.55 seconds)
Cbc0010I After 8000 nodes, 3608 on tree, 9238.4834 best solution, best possible 2606.9673 (1925.15 seconds)
Cbc0010I After 8100 nodes, 3658 on tree, 9238.4834 best solution, best possible 2606.9673 (1938.74 seconds)
Cbc0010I After 8200 nodes, 3708 on tree, 9238.4834 best solution, best possible 2606.9673 (1952.41 seconds)
Cbc0010I After 8300 nodes, 3758 on tree, 9238.4834 best solution, best possible 2606.9673 (1966.27 seconds)
Cbc0010I After 8400 nodes, 3799 on tree, 9238.4834 best solution, best possible 2608.4152 (1982.67 seconds)
Cbc0010I After 8500 nodes, 3849 on tree, 9238.4834 best solution, best possible 2608.4152 (1993.61 seconds)
Cbc0010I After 8600 nodes, 3899 on tree, 9238.4834 best solution, best possible 2608.4152 (2005.78 seconds)
Cbc0010I After 8700 nodes, 3949 on tree, 9238.4834 best solution, best possible 2608.4152 (2019.62 seconds)
Cbc0010I After 8800 nodes, 3999 on tree, 9238.4834 best solution, best possible 2608.4152 (2033.83 seconds)
Cbc0010I After 8900 nodes, 4036 on tree, 9238.4834 best solution, best possible 2614.5412 (2062.19 seconds)
Cbc0010I After 9000 nodes, 4086 on tree, 9238.4834 best solution, best possible 2614.5412 (2082.45 seconds)
Cbc0010I After 9100 nodes, 4136 on tree, 9238.4834 best solution, best possible 2614.5412 (2092.70 seconds)
Cbc0010I After 9200 nodes, 4186 on tree, 9238.4834 best solution, best possible 2614.5412 (2106.09 seconds)
Cbc0010I After 9300 nodes, 4236 on tree, 9238.4834 best solution, best possible 2614.5412 (2120.02 seconds)
Cbc0010I After 9400 nodes, 4286 on tree, 9238.4834 best solution, best possible 2614.5412 (2134.07 seconds)
Cbc0010I After 9500 nodes, 4330 on tree, 9238.4834 best solution, best possible 2615.3822 (2159.72 seconds)
Cbc0010I After 9600 nodes, 4380 on tree, 9238.4834 best solution, best possible 2615.3822 (2173.39 seconds)
Cbc0010I After 9700 nodes, 4430 on tree, 9238.4834 best solution, best possible 2615.3822 (2188.99 seconds)
Cbc0010I After 9800 nodes, 4479 on tree, 9238.4834 best solution, best possible 2615.3822 (2204.45 seconds)
Cbc0010I After 9900 nodes, 4522 on tree, 9238.4834 best solution, best possible 2615.6614 (2219.90 seconds)
Cbc0010I After 10000 nodes, 4572 on tree, 9238.4834 best solution, best possible 2615.6614 (2228.93 seconds)
Cbc0010I After 10100 nodes, 4622 on tree, 9238.4834 best solution, best possible 2615.6614 (2242.49 seconds)
Cbc0010I After 10200 nodes, 4672 on tree, 9238.4834 best solution, best possible 2615.6614 (2256.15 seconds)
Cbc0010I After 10300 nodes, 4722 on tree, 9238.4834 best solution, best possible 2615.6614 (2270.04 seconds)
Cbc0010I After 10400 nodes, 4766 on tree, 9238.4834 best solution, best possible 2621.9548 (2310.43 seconds)
Cbc0010I After 10500 nodes, 4816 on tree, 9238.4834 best solution, best possible 2621.9548 (2322.00 seconds)
Cbc0010I After 10600 nodes, 4866 on tree, 9238.4834 best solution, best possible 2621.9548 (2330.41 seconds)
Cbc0010I After 10700 nodes, 4916 on tree, 9238.4834 best solution, best possible 2621.9548 (2344.21 seconds)
Cbc0010I After 10800 nodes, 4966 on tree, 9238.4834 best solution, best possible 2621.9548 (2358.07 seconds)
Cbc0010I After 10900 nodes, 5016 on tree, 9238.4834 best solution, best possible 2621.9548 (2372.25 seconds)
Cbc0010I After 11000 nodes, 5050 on tree, 9238.4834 best solution, best possible 2623.7071 (2392.48 seconds)
Cbc0010I After 11100 nodes, 5100 on tree, 9238.4834 best solution, best possible 2623.7071 (2402.17 seconds)
Cbc0010I After 11200 nodes, 5150 on tree, 9238.4834 best solution, best possible 2623.7071 (2414.00 seconds)
Cbc0010I After 11300 nodes, 5200 on tree, 9238.4834 best solution, best possible 2623.7071 (2427.97 seconds)
Cbc0010I After 11400 nodes, 5250 on tree, 9238.4834 best solution, best possible 2623.7071 (2441.82 seconds)
Cbc0010I After 11500 nodes, 5300 on tree, 9238.4834 best solution, best possible 2623.7071 (2455.92 seconds)
Cbc0010I After 11600 nodes, 5350 on tree, 9238.4834 best solution, best possible 2623.7071 (2470.44 seconds)
Cbc0010I After 11700 nodes, 5397 on tree, 9238.4834 best solution, best possible 2624.2976 (2488.89 seconds)
Cbc0010I After 11800 nodes, 5447 on tree, 9238.4834 best solution, best possible 2624.2976 (2502.23 seconds)
Cbc0010I After 11900 nodes, 5497 on tree, 9238.4834 best solution, best possible 2624.2976 (2512.75 seconds)
Cbc0010I After 12000 nodes, 5547 on tree, 9238.4834 best solution, best possible 2624.2976 (2526.24 seconds)
Cbc0010I After 12100 nodes, 5597 on tree, 9238.4834 best solution, best possible 2624.2976 (2539.94 seconds)
Cbc0010I After 12200 nodes, 5647 on tree, 9238.4834 best solution, best possible 2624.2976 (2554.00 seconds)
Cbc0010I After 12300 nodes, 5690 on tree, 9238.4834 best solution, best possible 2624.2976 (2568.16 seconds)
Couenne: new cutoff value 8.5371397343e+03 (2604.12 seconds)
Cbc0012I Integer solution of 8537.1397 found by Couenne Rounding NLP after 1720795 iterations and 12326 nodes (2576.43 seconds)
Cbc0010I After 12400 nodes, 4931 on tree, 8537.1397 best solution, best possible 2627.5374 (2595.23 seconds)
Cbc0010I After 12500 nodes, 4981 on tree, 8537.1397 best solution, best possible 2627.5374 (2604.40 seconds)
Cbc0010I After 12600 nodes, 5031 on tree, 8537.1397 best solution, best possible 2627.5374 (2619.06 seconds)
Cbc0010I After 12700 nodes, 5081 on tree, 8537.1397 best solution, best possible 2627.5374 (2634.34 seconds)
Cbc0010I After 12800 nodes, 5124 on tree, 8537.1397 best solution, best possible 2628.0076 (2659.48 seconds)
Cbc0010I After 12900 nodes, 5174 on tree, 8537.1397 best solution, best possible 2628.0076 (2670.11 seconds)
Cbc0010I After 13000 nodes, 5224 on tree, 8537.1397 best solution, best possible 2628.0076 (2683.83 seconds)
Cbc0010I After 13100 nodes, 5274 on tree, 8537.1397 best solution, best possible 2628.0076 (2698.45 seconds)
Cbc0010I After 13200 nodes, 5324 on tree, 8537.1397 best solution, best possible 2628.0076 (2713.09 seconds)
Cbc0010I After 13300 nodes, 5365 on tree, 8537.1397 best solution, best possible 2628.3862 (2726.46 seconds)
Cbc0010I After 13400 nodes, 5415 on tree, 8537.1397 best solution, best possible 2628.3862 (2733.70 seconds)
Cbc0010I After 13500 nodes, 5465 on tree, 8537.1397 best solution, best possible 2628.3862 (2746.12 seconds)
Cbc0010I After 13600 nodes, 5515 on tree, 8537.1397 best solution, best possible 2628.3862 (2759.59 seconds)
Cbc0010I After 13700 nodes, 5565 on tree, 8537.1397 best solution, best possible 2628.3862 (2773.40 seconds)
Cbc0010I After 13800 nodes, 5615 on tree, 8537.1397 best solution, best possible 2628.3862 (2787.33 seconds)
Cbc0010I After 13900 nodes, 5662 on tree, 8537.1397 best solution, best possible 2630.4189 (2804.47 seconds)
Cbc0010I After 14000 nodes, 5712 on tree, 8537.1397 best solution, best possible 2630.4189 (2813.43 seconds)
Cbc0010I After 14100 nodes, 5762 on tree, 8537.1397 best solution, best possible 2630.4189 (2828.63 seconds)
Cbc0010I After 14200 nodes, 5812 on tree, 8537.1397 best solution, best possible 2630.4189 (2844.18 seconds)
Cbc0010I After 14300 nodes, 5862 on tree, 8537.1397 best solution, best possible 2630.4189 (2859.98 seconds)
Cbc0010I After 14400 nodes, 5902 on tree, 8537.1397 best solution, best possible 2630.7657 (2878.50 seconds)
Cbc0010I After 14500 nodes, 5952 on tree, 8537.1397 best solution, best possible 2630.7657 (2888.22 seconds)
Cbc0010I After 14600 nodes, 6002 on tree, 8537.1397 best solution, best possible 2630.7657 (2901.79 seconds)
Cbc0010I After 14700 nodes, 6052 on tree, 8537.1397 best solution, best possible 2630.7657 (2915.60 seconds)
Cbc0010I After 14800 nodes, 6095 on tree, 8537.1397 best solution, best possible 2634.2742 (2966.64 seconds)
Cbc0010I After 14900 nodes, 6145 on tree, 8537.1397 best solution, best possible 2634.2742 (2975.70 seconds)
Cbc0010I After 15000 nodes, 6195 on tree, 8537.1397 best solution, best possible 2634.2742 (2986.98 seconds)
Cbc0010I After 15100 nodes, 6245 on tree, 8537.1397 best solution, best possible 2634.2742 (3000.67 seconds)
Cbc0010I After 15200 nodes, 6289 on tree, 8537.1397 best solution, best possible 2634.2742 (3014.25 seconds)
Cbc0010I After 15300 nodes, 6338 on tree, 8537.1397 best solution, best possible 2634.4573 (3033.67 seconds)
Cbc0010I After 15400 nodes, 6388 on tree, 8537.1397 best solution, best possible 2634.4573 (3045.27 seconds)
Cbc0010I After 15500 nodes, 6438 on tree, 8537.1397 best solution, best possible 2634.4573 (3057.65 seconds)
Cbc0010I After 15600 nodes, 6481 on tree, 8537.1397 best solution, best possible 2635.4394 (3071.29 seconds)
Cbc0010I After 15700 nodes, 6531 on tree, 8537.1397 best solution, best possible 2635.4394 (3085.72 seconds)
Cbc0010I After 15800 nodes, 6581 on tree, 8537.1397 best solution, best possible 2635.4394 (3095.68 seconds)
Cbc0010I After 15900 nodes, 6631 on tree, 8537.1397 best solution, best possible 2635.4394 (3108.22 seconds)
Cbc0010I After 16000 nodes, 6681 on tree, 8537.1397 best solution, best possible 2635.4394 (3122.12 seconds)
Cbc0010I After 16100 nodes, 6727 on tree, 8537.1397 best solution, best possible 2635.4394 (3136.00 seconds)
Cbc0010I After 16200 nodes, 6771 on tree, 8537.1397 best solution, best possible 2635.7799 (3153.69 seconds)
Cbc0010I After 16300 nodes, 6821 on tree, 8537.1397 best solution, best possible 2635.7799 (3162.47 seconds)
Cbc0010I After 16400 nodes, 6871 on tree, 8537.1397 best solution, best possible 2635.7799 (3176.17 seconds)
Cbc0010I After 16500 nodes, 6921 on tree, 8537.1397 best solution, best possible 2635.7799 (3190.26 seconds)
Cbc0010I After 16600 nodes, 6963 on tree, 8537.1397 best solution, best possible 2637.1807 (3206.04 seconds)
Cbc0010I After 16700 nodes, 7013 on tree, 8537.1397 best solution, best possible 2637.1807 (3226.16 seconds)
Cbc0010I After 16800 nodes, 7063 on tree, 8537.1397 best solution, best possible 2637.1807 (3238.31 seconds)
Cbc0010I After 16900 nodes, 7113 on tree, 8537.1397 best solution, best possible 2637.1807 (3249.84 seconds)
Cbc0010I After 17000 nodes, 7162 on tree, 8537.1397 best solution, best possible 2637.1807 (3263.27 seconds)
Cbc0010I After 17100 nodes, 7209 on tree, 8537.1397 best solution, best possible 2639.6687 (3281.49 seconds)
Cbc0010I After 17200 nodes, 7259 on tree, 8537.1397 best solution, best possible 2639.6687 (3291.69 seconds)
Cbc0010I After 17300 nodes, 7309 on tree, 8537.1397 best solution, best possible 2639.6687 (3304.79 seconds)
Cbc0010I After 17400 nodes, 7352 on tree, 8537.1397 best solution, best possible 2640.481 (3319.98 seconds)
Cbc0010I After 17500 nodes, 7402 on tree, 8537.1397 best solution, best possible 2640.481 (3336.13 seconds)
Cbc0010I After 17600 nodes, 7452 on tree, 8537.1397 best solution, best possible 2640.481 (3349.82 seconds)
Cbc0010I After 17700 nodes, 7502 on tree, 8537.1397 best solution, best possible 2640.481 (3362.41 seconds)
Cbc0010I After 17800 nodes, 7552 on tree, 8537.1397 best solution, best possible 2640.481 (3377.18 seconds)
Cbc0010I After 17900 nodes, 7594 on tree, 8537.1397 best solution, best possible 2643.1116 (3395.02 seconds)
Cbc0010I After 18000 nodes, 7644 on tree, 8537.1397 best solution, best possible 2643.1116 (3409.31 seconds)
Cbc0010I After 18100 nodes, 7694 on tree, 8537.1397 best solution, best possible 2643.1116 (3420.57 seconds)
Cbc0010I After 18200 nodes, 7744 on tree, 8537.1397 best solution, best possible 2643.1116 (3432.93 seconds)
Cbc0010I After 18300 nodes, 7790 on tree, 8537.1397 best solution, best possible 2672.1978 (3450.95 seconds)
Cbc0010I After 18400 nodes, 7840 on tree, 8537.1397 best solution, best possible 2672.1978 (3462.03 seconds)
Cbc0010I After 18500 nodes, 7890 on tree, 8537.1397 best solution, best possible 2672.1978 (3471.74 seconds)
Cbc0010I After 18600 nodes, 7940 on tree, 8537.1397 best solution, best possible 2672.1978 (3485.40 seconds)
Cbc0010I After 18700 nodes, 7983 on tree, 8537.1397 best solution, best possible 2678.1719 (3501.91 seconds)
Cbc0010I After 18800 nodes, 8033 on tree, 8537.1397 best solution, best possible 2678.1719 (3517.83 seconds)
Cbc0010I After 18900 nodes, 8083 on tree, 8537.1397 best solution, best possible 2678.1719 (3527.85 seconds)
Cbc0010I After 19000 nodes, 8133 on tree, 8537.1397 best solution, best possible 2678.1719 (3540.91 seconds)
Cbc0010I After 19100 nodes, 8176 on tree, 8537.1397 best solution, best possible 2679.8819 (3560.93 seconds)
Cbc0020I Exiting on maximum time
Cbc0005I Partial search - best objective 8537.1397 (best possible 2679.8819), took 2979181 iterations and 19170 nodes (3576.86 seconds)
Cbc0035I Maximum depth 405, 0 variables fixed on reduced cost

 	"Not finished"

Linearization cuts added at root node:       7551
Linearization cuts added in total:           7551  (separation time: 0.036365s)
Total solve time:                         3577.37s (3577.37s in branch-and-bound)
Lower bound:                              2679.88
Upper bound:                              8537.14  (gap: 218.48%)
Branch-and-bound nodes:                     19170
Stats: /tmp/jl_Z1e588/model.nl 1510 [var]  510 [int] 1550 [con] 2051 [aux]   7551 [root]     7551 [tot] 0.036365 [sep]  3577.37 [time]  3577.39 [bb]         2.679882e+03 [lower]         8.537140e+03 [upper]   19170 [nodes]
Performance of                           FBBT:	    356.195s,    35202 runs. fix:          0 shrnk:    16.2199 ubd:          0 2ubd:          0 infeas:          0
Performance of                           OBBT:	    7.10293s,       11 runs. fix:   0.411765 shrnk:    9.09949 ubd:          0 2ubd:          0 infeas:          0
ERROR: LoadError: MathOptInterface.GetAttributeNotAllowed{MathOptInterface.ObjectiveBound}: Getting attribute MathOptInterface.ObjectiveBound() cannot be performed: AmplNLWriter.Optimizer does not support getting the attribute MathOptInterface.ObjectiveBound(). You may want to use a `CachingOptimizer` in `AUTOMATIC` mode or you may need to call `reset_optimizer` before doing this operation if the `CachingOptimizer` is in `MANUAL` mode.
Stacktrace:
  [1] get_fallback(model::AmplNLWriter.Optimizer, attr::MathOptInterface.ObjectiveBound)
    @ MathOptInterface ~/.julia/packages/MathOptInterface/gLl4d/src/attributes.jl:409
  [2] get(::AmplNLWriter.Optimizer, ::MathOptInterface.ObjectiveBound)
    @ MathOptInterface ~/.julia/packages/MathOptInterface/gLl4d/src/attributes.jl:390
  [3] _get_model_attribute(model::MathOptInterface.Utilities.CachingOptimizer{AmplNLWriter.Optimizer, MathOptInterface.Utilities.UniversalFallback{MathOptInterface.Utilities.Model{Float64}}}, attr::MathOptInterface.ObjectiveBound)
    @ MathOptInterface.Utilities ~/.julia/packages/MathOptInterface/gLl4d/src/Utilities/cachingoptimizer.jl:865
  [4] get(model::MathOptInterface.Utilities.CachingOptimizer{AmplNLWriter.Optimizer, MathOptInterface.Utilities.UniversalFallback{MathOptInterface.Utilities.Model{Float64}}}, attr::MathOptInterface.ObjectiveBound)
    @ MathOptInterface.Utilities ~/.julia/packages/MathOptInterface/gLl4d/src/Utilities/cachingoptimizer.jl:900
  [5] get(b::MathOptInterface.Bridges.LazyBridgeOptimizer{MathOptInterface.Utilities.CachingOptimizer{AmplNLWriter.Optimizer, MathOptInterface.Utilities.UniversalFallback{MathOptInterface.Utilities.Model{Float64}}}}, attr::MathOptInterface.ObjectiveBound)
    @ MathOptInterface.Bridges ~/.julia/packages/MathOptInterface/gLl4d/src/Bridges/bridge_optimizer.jl:889
  [6] _get_model_attribute(model::MathOptInterface.Utilities.CachingOptimizer{MathOptInterface.Bridges.LazyBridgeOptimizer{MathOptInterface.Utilities.CachingOptimizer{AmplNLWriter.Optimizer, MathOptInterface.Utilities.UniversalFallback{MathOptInterface.Utilities.Model{Float64}}}}, MathOptInterface.Utilities.UniversalFallback{MathOptInterface.Utilities.Model{Float64}}}, attr::MathOptInterface.ObjectiveBound)
    @ MathOptInterface.Utilities ~/.julia/packages/MathOptInterface/gLl4d/src/Utilities/cachingoptimizer.jl:865
  [7] get(model::MathOptInterface.Utilities.CachingOptimizer{MathOptInterface.Bridges.LazyBridgeOptimizer{MathOptInterface.Utilities.CachingOptimizer{AmplNLWriter.Optimizer, MathOptInterface.Utilities.UniversalFallback{MathOptInterface.Utilities.Model{Float64}}}}, MathOptInterface.Utilities.UniversalFallback{MathOptInterface.Utilities.Model{Float64}}}, attr::MathOptInterface.ObjectiveBound)
    @ MathOptInterface.Utilities ~/.julia/packages/MathOptInterface/gLl4d/src/Utilities/cachingoptimizer.jl:900
  [8] _moi_get_result(model::MathOptInterface.Utilities.CachingOptimizer{MathOptInterface.Bridges.LazyBridgeOptimizer{MathOptInterface.Utilities.CachingOptimizer{AmplNLWriter.Optimizer, MathOptInterface.Utilities.UniversalFallback{MathOptInterface.Utilities.Model{Float64}}}}, MathOptInterface.Utilities.UniversalFallback{MathOptInterface.Utilities.Model{Float64}}}, args::MathOptInterface.ObjectiveBound)
    @ JuMP ~/.julia/packages/JuMP/i68GU/src/optimizer_interface.jl:1053
  [9] get(model::JuMP.Model, attr::MathOptInterface.ObjectiveBound)
    @ JuMP ~/.julia/packages/JuMP/i68GU/src/optimizer_interface.jl:1073
 [10] objective_bound(model::JuMP.Model)
    @ JuMP ~/.julia/packages/JuMP/i68GU/src/objective.jl:78
 [11] nl_uflp_nlass(filename::String, cost::Symbol, solver::AmplNLWriter.Optimizer, solver_params::Vector{Any}; solve::Bool, write_nl::Bool, with_cap_constraint::Bool)
    @ IterativePWLB ~/git/ipwlb/code/sources/IterativePWLB/src/nlsolver.jl:885
 [12] top-level scope
    @ ~/git/ipwlb/code/sources/IterativePWLB/test/couenne/uflp_nlass/script.jl:14
in expression starting at /home/ccontard/git/ipwlb/code/sources/IterativePWLB/test/couenne/uflp_nlass/script.jl:14
reading holmberg data file /home/ccontard/git/ipwlb/code/instances/uflp/holmberg/p1
